p cnf 200 1110
-101 9 0
-101 -67 0
-101 -77 0
-101 96 0
-101 76 0
-101 12 0
-101 -95 0
-101 28 0
-101 1 0
-101 -63 0
101 -9 67 77 -96 -76 -12 95 -28 -1 63 0
-102 51 0
-102 2 0
-102 16 0
-102 -58 0
-102 18 0
-102 -60 0
-102 -95 0
-102 32 0
-102 -88 0
-102 3 0
102 -51 -2 -16 58 -18 60 95 -32 88 -3 0
-103 -36 0
-103 28 0
-103 -10 0
-103 -16 0
-103 -72 0
-103 65 0
-103 100 0
-103 11 0
-103 -69 0
-103 -40 0
103 36 -28 10 16 72 -65 -100 -11 69 40 0
-104 27 0
-104 -32 0
-104 64 0
-104 -9 0
-104 -67 0
-104 -96 0
-104 -20 0
-104 -7 0
-104 46 0
-104 92 0
104 -27 32 -64 9 67 96 20 7 -46 -92 0
-105 -29 0
-105 -20 0
-105 -27 0
-105 -26 0
-105 -76 0
-105 79 0
-105 75 0
-105 -25 0
-105 5 0
-105 48 0
105 29 20 27 26 76 -79 -75 25 -5 -48 0
-106 -75 0
-106 -17 0
-106 100 0
-106 -11 0
-106 -35 0
-106 72 0
-106 -7 0
-106 -20 0
-106 60 0
-106 -82 0
106 75 17 -100 11 35 -72 7 20 -60 82 0
-107 -42 0
-107 -4 0
-107 82 0
-107 41 0
-107 -62 0
-107 -14 0
-107 26 0
-107 -45 0
-107 85 0
-107 -50 0
107 42 4 -82 -41 62 14 -26 45 -85 50 0
-108 85 0
-108 -89 0
-108 -50 0
-108 -29 0
-108 22 0
-108 -91 0
-108 15 0
-108 -66 0
-108 28 0
-108 43 0
108 -85 89 50 29 -22 91 -15 66 -28 -43 0
-109 -53 0
-109 71 0
-109 -69 0
-109 -52 0
-109 -90 0
-109 33 0
-109 96 0
-109 18 0
-109 87 0
-109 39 0
109 53 -71 69 52 90 -33 -96 -18 -87 -39 0
-110 39 0
-110 -81 0
-110 54 0
-110 -23 0
-110 -85 0
-110 88 0
-110 37 0
-110 -6 0
-110 93 0
-110 75 0
110 -39 81 -54 23 85 -88 -37 6 -93 -75 0
101 102 103 104 105 106 107 108 109 110 0
-111 5 0
-111 67 0
-111 -64 0
-111 77 0
-111 -57 0
-111 20 0
-111 -60 0
-111 -38 0
-111 -93 0
-111 82 0
111 -5 -67 64 -77 57 -20 60 38 93 -82 0
-112 6 0
-112 12 0
-112 72 0
-112 85 0
-112 -93 0
-112 10 0
-112 -16 0
-112 -29 0
-112 -24 0
-112 78 0
112 -6 -12 -72 -85 93 -10 16 29 24 -78 0
-113 48 0
-113 17 0
-113 100 0
-113 -86 0
-113 40 0
-113 -43 0
-113 54 0
-113 -38 0
-113 30 0
-113 -57 0
113 -48 -17 -100 86 -40 43 -54 38 -30 57 0
-114 -34 0
-114 -55 0
-114 -92 0
-114 -1 0
-114 -100 0
-114 -82 0
-114 -58 0
-114 18 0
-114 -70 0
-114 -37 0
114 34 55 92 1 100 82 58 -18 70 37 0
-115 -40 0
-115 -12 0
-115 -71 0
-115 -53 0
-115 98 0
-115 -83 0
-115 85 0
-115 -42 0
-115 90 0
-115 48 0
115 40 12 71 53 -98 83 -85 42 -90 -48 0
-116 -75 0
-116 50 0
-116 -85 0
-116 82 0
-116 -16 0
-116 -37 0
-116 74 0
-116 -94 0
-116 -78 0
-116 18 0
116 75 -50 85 -82 16 37 -74 94 78 -18 0
-117 -29 0
-117 -51 0
-117 95 0
-117 -15 0
-117 53 0
-117 -39 0
-117 -19 0
-117 -9 0
-117 -93 0
-117 35 0
117 29 51 -95 15 -53 39 19 9 93 -35 0
-118 -11 0
-118 -77 0
-118 10 0
-118 -69 0
-118 -63 0
-118 95 0
-118 -91 0
-118 45 0
-118 -65 0
-118 -23 0
118 11 77 -10 69 63 -95 91 -45 65 23 0
-119 -22 0
-119 39 0
-119 91 0
-119 -87 0
-119 -86 0
-119 27 0
-119 76 0
-119 -78 0
-119 47 0
-119 -5 0
119 22 -39 -91 87 86 -27 -76 78 -47 5 0
-120 15 0
-120 -95 0
-120 11 0
-120 -73 0
-120 -17 0
-120 77 0
-120 -8 0
-120 47 0
-120 -7 0
-120 -4 0
120 -15 95 -11 73 17 -77 8 -47 7 4 0
111 112 113 114 115 116 117 118 119 120 0
-121 -44 0
-121 -1 0
-121 14 0
-121 -58 0
-121 87 0
-121 -45 0
-121 -95 0
-121 59 0
-121 82 0
-121 -70 0
121 44 1 -14 58 -87 45 95 -59 -82 70 0
-122 -42 0
-122 -25 0
-122 -85 0
-122 23 0
-122 -52 0
-122 -27 0
-122 -82 0
-122 -14 0
-122 44 0
-122 48 0
122 42 25 85 -23 52 27 82 14 -44 -48 0
-123 -12 0
-123 -48 0
-123 -13 0
-123 18 0
-123 -51 0
-123 92 0
-123 14 0
-123 87 0
-123 -20 0
-123 29 0
123 12 48 13 -18 51 -92 -14 -87 20 -29 0
-124 21 0
-124 15 0
-124 -30 0
-124 -79 0
-124 -60 0
-124 63 0
-124 -94 0
-124 6 0
-124 67 0
-124 32 0
124 -21 -15 30 79 60 -63 94 -6 -67 -32 0
-125 -83 0
-125 78 0
-125 63 0
-125 -61 0
-125 -64 0
-125 99 0
-125 -19 0
-125 56 0
-125 32 0
-125 -2 0
125 83 -78 -63 61 64 -99 19 -56 -32 2 0
-126 -95 0
-126 28 0
-126 -76 0
-126 21 0
-126 -47 0
-126 -53 0
-126 26 0
-126 78 0
-126 60 0
-126 73 0
126 95 -28 76 -21 47 53 -26 -78 -60 -73 0
-127 84 0
-127 -1 0
-127 82 0
-127 12 0
-127 -59 0
-127 77 0
-127 -67 0
-127 57 0
-127 20 0
-127 -58 0
127 -84 1 -82 -12 59 -77 67 -57 -20 58 0
-128 -70 0
-128 -11 0
-128 -14 0
-128 81 0
-128 16 0
-128 33 0
-128 -93 0
-128 -78 0
-128 99 0
-128 -26 0
128 70 11 14 -81 -16 -33 93 78 -99 26 0
-129 23 0
-129 -41 0
-129 81 0
-129 72 0
-129 -34 0
-129 85 0
-129 13 0
-129 -56 0
-129 40 0
-129 7 0
129 -23 41 -81 -72 34 -85 -13 56 -40 -7 0
-130 -5 0
-130 -32 0
-130 -34 0
-130 -83 0
-130 12 0
-130 7 0
-130 85 0
-130 86 0
-130 13 0
-130 -80 0
130 5 32 34 83 -12 -7 -85 -86 -13 80 0
121 122 123 124 125 126 127 128 129 130 0
-131 -22 0
-131 14 0
-131 50 0
-131 7 0
-131 46 0
-131 35 0
-131 45 0
-131 93 0
-131 56 0
-131 -4 0
131 22 -14 -50 -7 -46 -35 -45 -93 -56 4 0
-132 -9 0
-132 -57 0
-132 66 0
-132 67 0
-132 76 0
-132 -10 0
-132 6 0
-132 87 0
-132 80 0
-132 -75 0
132 9 57 -66 -67 -76 10 -6 -87 -80 75 0
-133 64 0
-133 11 0
-133 -95 0
-133 59 0
-133 -18 0
-133 23 0
-133 -81 0
-133 -29 0
-133 7 0
-133 -30 0
133 -64 -11 95 -59 18 -23 81 29 -7 30 0
-134 -36 0
-134 -41 0
-134 67 0
-134 78 0
-134 -3 0
-134 -45 0
-134 28 0
-134 29 0
-134 -84 0
-134 -24 0
134 36 41 -67 -78 3 45 -28 -29 84 24 0
-135 40 0
-135 -33 0
-135 29 0
-135 25 0
-135 24 0
-135 80 0
-135 -22 0
-135 -52 0
-135 90 0
-135 -48 0
135 -40 33 -29 -25 -24 -80 22 52 -90 48 0
-136 69 0
-136 15 0
-136 -19 0
-136 84 0
-136 11 0
-136 46 0
-136 93 0
-136 17 0
-136 -5 0
-136 92 0
136 -69 -15 19 -84 -11 -46 -93 -17 5 -92 0
-137 73 0
-137 98 0
-137 -61 0
-137 51 0
-137 10 0
-137 -56 0
-137 60 0
-137 -67 0
-137 48 0
-137 62 0
137 -73 -98 61 -51 -10 56 -60 67 -48 -62 0
-138 46 0
-138 11 0
-138 14 0
-138 13 0
-138 -66 0
-138 -26 0
-138 -96 0
-138 -24 0
-138 -60 0
-138 79 0
138 -46 -11 -14 -13 66 26 96 24 60 -79 0
-139 -8 0
-139 -100 0
-139 30 0
-139 -96 0
-139 -80 0
-139 93 0
-139 64 0
-139 11 0
-139 -78 0
-139 87 0
139 8 100 -30 96 80 -93 -64 -11 78 -87 0
-140 58 0
-140 -51 0
-140 94 0
-140 85 0
-140 89 0
-140 71 0
-140 -40 0
-140 -25 0
-140 -73 0
-140 -43 0
140 -58 51 -94 -85 -89 -71 40 25 73 43 0
131 132 133 134 135 136 137 138 139 140 0
-141 -33 0
-141 12 0
-141 -89 0
-141 -51 0
-141 30 0
-141 -64 0
-141 -20 0
-141 -19 0
-141 44 0
-141 72 0
141 33 -12 89 51 -30 64 20 19 -44 -72 0
-142 -57 0
-142 -46 0
-142 -33 0
-142 80 0
-142 2 0
-142 -84 0
-142 71 0
-142 52 0
-142 -5 0
-142 88 0
142 57 46 33 -80 -2 84 -71 -52 5 -88 0
-143 -59 0
-143 -47 0
-143 -49 0
-143 -10 0
-143 54 0
-143 -63 0
-143 9 0
-143 -12 0
-143 -30 0
-143 -58 0
143 59 47 49 10 -54 63 -9 12 30 58 0
-144 -31 0
-144 97 0
-144 21 0
-144 22 0
-144 58 0
-144 -96 0
-144 -36 0
-144 -50 0
-144 35 0
-144 -89 0
144 31 -97 -21 -22 -58 96 36 50 -35 89 0
-145 77 0
-145 98 0
-145 63 0
-145 -95 0
-145 1 0
-145 -82 0
-145 -67 0
-145 -36 0
-145 47 0
-145 -99 0
145 -77 -98 -63 95 -1 82 67 36 -47 99 0
-146 -58 0
-146 -92 0
-146 62 0
-146 68 0
-146 34 0
-146 -69 0
-146 -82 0
-146 50 0
-146 43 0
-146 -59 0
146 58 92 -62 -68 -34 69 82 -50 -43 59 0
-147 55 0
-147 -80 0
-147 -6 0
-147 73 0
-147 88 0
-147 -71 0
-147 -79 0
-147 66 0
-147 85 0
-147 3 0
147 -55 80 6 -73 -88 71 79 -66 -85 -3 0
-148 -15 0
-148 -73 0
-148 9 0
-148 -39 0
-148 -49 0
-148 45 0
-148 36 0
-148 -64 0
-148 -28 0
-148 -81 0
148 15 73 -9 39 49 -45 -36 64 28 81 0
-149 33 0
-149 14 0
-149 99 0
-149 -52 0
-149 76 0
-149 29 0
-149 20 0
-149 -66 0
-149 17 0
-149 -69 0
149 -33 -14 -99 52 -76 -29 -20 66 -17 69 0
-150 -86 0
-150 -4 0
-150 -59 0
-150 -9 0
-150 -66 0
-150 -95 0
-150 53 0
-150 20 0
-150 -76 0
-150 -73 0
150 86 4 59 9 66 95 -53 -20 76 73 0
141 142 143 144 145 146 147 148 149 150 0
-151 -28 0
-151 -91 0
-151 57 0
-151 -13 0
-151 -9 0
-151 76 0
-151 3 0
-151 -84 0
-151 -11 0
-151 -68 0
151 28 91 -57 13 9 -76 -3 84 11 68 0
-152 -41 0
-152 -60 0
-152 -37 0
-152 -12 0
-152 67 0
-152 -16 0
-152 26 0
-152 -52 0
-152 -82 0
-152 39 0
152 41 60 37 12 -67 16 -26 52 82 -39 0
-153 -46 0
-153 3 0
-153 22 0
-153 99 0
-153 90 0
-153 86 0
-153 75 0
-153 29 0
-153 23 0
-153 -92 0
153 46 -3 -22 -99 -90 -86 -75 -29 -23 92 0
-154 -87 0
-154 -47 0
-154 -27 0
-154 2 0
-154 10 0
-154 -84 0
-154 71 0
-154 -93 0
-154 68 0
-154 -42 0
154 87 47 27 -2 -10 84 -71 93 -68 42 0
-155 17 0
-155 50 0
-155 55 0
-155 11 0
-155 -23 0
-155 45 0
-155 93 0
-155 79 0
-155 1 0
-155 -3 0
155 -17 -50 -55 -11 23 -45 -93 -79 -1 3 0
-156 -89 0
-156 -50 0
-156 -79 0
-156 -77 0
-156 -91 0
-156 -64 0
-156 88 0
-156 -23 0
-156 -3 0
-156 -76 0
156 89 50 79 77 91 64 -88 23 3 76 0
-157 92 0
-157 -10 0
-157 -21 0
-157 84 0
-157 23 0
-157 53 0
-157 -47 0
-157 -56 0
-157 -75 0
-157 24 0
157 -92 10 21 -84 -23 -53 47 56 75 -24 0
-158 37 0
-158 -14 0
-158 65 0
-158 48 0
-158 72 0
-158 6 0
-158 -75 0
-158 -76 0
-158 -3 0
-158 -58 0
158 -37 14 -65 -48 -72 -6 75 76 3 58 0
-159 -71 0
-159 -29 0
-159 -41 0
-159 -47 0
-159 -6 0
-159 -62 0
-159 -52 0
-159 74 0
-159 -69 0
-159 88 0
159 71 29 41 47 6 62 52 -74 69 -88 0
-160 -94 0
-160 -72 0
-160 -99 0
-160 39 0
-160 11 0
-160 62 0
-160 61 0
-160 26 0
-160 17 0
-160 -33 0
160 94 72 99 -39 -11 -62 -61 -26 -17 33 0
151 152 153 154 155 156 157 158 159 160 0
-161 -15 0
-161 -17 0
-161 83 0
-161 -58 0
-161 -78 0
-161 96 0
-161 -88 0
-161 64 0
-161 -99 0
-161 41 0
161 15 17 -83 58 78 -96 88 -64 99 -41 0
-162 -78 0
-162 68 0
-162 -22 0
-162 -96 0
-162 100 0
-162 -75 0
-162 -26 0
-162 90 0
-162 41 0
-162 -85 0
162 78 -68 22 96 -100 75 26 -90 -41 85 0
-163 17 0
-163 18 0
-163 -51 0
-163 -99 0
-163 27 0
-163 28 0
-163 -21 0
-163 75 0
-163 74 0
-163 36 0
163 -17 -18 51 99 -27 -28 21 -75 -74 -36 0
-164 29 0
-164 93 0
-164 49 0
-164 3 0
-164 -63 0
-164 47 0
-164 8 0
-164 51 0
-164 -32 0
-164 34 0
164 -29 -93 -49 -3 63 -47 -8 -51 32 -34 0
-165 37 0
-165 -11 0
-165 -59 0
-165 43 0
-165 54 0
-165 -61 0
-165 42 0
-165 38 0
-165 -12 0
-165 46 0
165 -37 11 59 -43 -54 61 -42 -38 12 -46 0
-166 -1 0
-166 21 0
-166 -44 0
-166 45 0
-166 -53 0
-166 9 0
-166 17 0
-166 87 0
-166 -90 0
-166 48 0
166 1 -21 44 -45 53 -9 -17 -87 90 -48 0
-167 -95 0
-167 48 0
-167 93 0
-167 13 0
-167 45 0
-167 4 0
-167 -23 0
-167 -18 0
-167 88 0
-167 22 0
167 95 -48 -93 -13 -45 -4 23 18 -88 -22 0
-168 -84 0
-168 -33 0
-168 -62 0
-168 72 0
-168 -47 0
-168 86 0
-168 -27 0
-168 89 0
-168 -32 0
-168 -34 0
168 84 33 62 -72 47 -86 27 -89 32 34 0
-169 -75 0
-169 -5 0
-169 -1 0
-169 7 0
-169 17 0
-169 35 0
-169 31 0
-169 -33 0
-169 -37 0
-169 -6 0
169 75 5 1 -7 -17 -35 -31 33 37 6 0
-170 -39 0
-170 58 0
-170 74 0
-170 -63 0
-170 21 0
-170 -69 0
-170 -72 0
-170 36 0
-170 -43 0
-170 95 0
170 39 -58 -74 63 -21 69 72 -36 43 -95 0
161 162 163 164 165 166 167 168 169 170 0
-171 12 0
-171 94 0
-171 69 0
-171 -23 0
-171 6 0
-171 -53 0
-171 16 0
-171 54 0
-171 -50 0
-171 -59 0
171 -12 -94 -69 23 -6 53 -16 -54 50 59 0
-172 -4 0
-172 41 0
-172 -8 0
-172 74 0
-172 -91 0
-172 -13 0
-172 80 0
-172 -56 0
-172 -21 0
-172 -23 0
172 4 -41 8 -74 91 13 -80 56 21 23 0
-173 58 0
-173 -2 0
-173 74 0
-173 -92 0
-173 4 0
-173 -64 0
-173 47 0
-173 -78 0
-173 -51 0
-173 50 0
173 -58 2 -74 92 -4 64 -47 78 51 -50 0
-174 40 0
-174 -28 0
-174 11 0
-174 -47 0
-174 -39 0
-174 62 0
-174 -29 0
-174 -42 0
-174 -20 0
-174 77 0
174 -40 28 -11 47 39 -62 29 42 20 -77 0
-175 7 0
-175 -44 0
-175 -79 0
-175 83 0
-175 80 0
-175 59 0
-175 -72 0
-175 17 0
-175 71 0
-175 -81 0
175 -7 44 79 -83 -80 -59 72 -17 -71 81 0
-176 29 0
-176 90 0
-176 -84 0
-176 -60 0
-176 38 0
-176 42 0
-176 -95 0
-176 -20 0
-176 -43 0
-176 8 0
176 -29 -90 84 60 -38 -42 95 20 43 -8 0
-177 30 0
-177 -48 0
-177 98 0
-177 -87 0
-177 67 0
-177 88 0
-177 -46 0
-177 21 0
-177 -19 0
-177 -58 0
177 -30 48 -98 87 -67 -88 46 -21 19 58 0
-178 -68 0
-178 -50 0
-178 -23 0
-178 -24 0
-178 37 0
-178 -54 0
-178 -62 0
-178 10 0
-178 93 0
-178 -78 0
178 68 50 23 24 -37 54 62 -10 -93 78 0
-179 69 0
-179 -38 0
-179 74 0
-179 -79 0
-179 -93 0
-179 70 0
-179 -82 0
-179 30 0
-179 -4 0
-179 63 0
179 -69 38 -74 79 93 -70 82 -30 4 -63 0
-180 -64 0
-180 -100 0
-180 -36 0
-180 -6 0
-180 -79 0
-180 -50 0
-180 -93 0
-180 1 0
-180 88 0
-180 -54 0
180 64 100 36 6 79 50 93 -1 -88 54 0
171 172 173 174 175 176 177 178 179 180 0
-181 100 0
-181 -87 0
-181 -74 0
-181 92 0
-181 19 0
-181 -60 0
-181 -91 0
-181 -59 0
-181 -79 0
-181 -53 0
181 -100 87 74 -92 -19 60 91 59 79 53 0
-182 -67 0
-182 36 0
-182 30 0
-182 41 0
-182 -23 0
-182 20 0
-182 14 0
-182 61 0
-182 4 0
-182 -59 0
182 67 -36 -30 -41 23 -20 -14 -61 -4 59 0
-183 61 0
-183 24 0
-183 74 0
-183 -80 0
-183 -90 0
-183 -7 0
-183 34 0
-183 -78 0
-183 -6 0
-183 -10 0
183 -61 -24 -74 80 90 7 -34 78 6 10 0
-184 88 0
-184 15 0
-184 68 0
-184 12 0
-184 1 0
-184 69 0
-184 -26 0
-184 -71 0
-184 -65 0
-184 31 0
184 -88 -15 -68 -12 -1 -69 26 71 65 -31 0
-185 66 0
-185 1 0
-185 34 0
-185 -100 0
-185 -51 0
-185 -59 0
-185 -83 0
-185 -16 0
-185 55 0
-185 -17 0
185 -66 -1 -34 100 51 59 83 16 -55 17 0
-186 -21 0
-186 76 0
-186 -87 0
-186 96 0
-186 29 0
-186 -6 0
-186 11 0
-186 -27 0
-186 99 0
-186 66 0
186 21 -76 87 -96 -29 6 -11 27 -99 -66 0
-187 -97 0
-187 30 0
-187 88 0
-187 -94 0
-187 -6 0
-187 21 0
-187 -45 0
-187 -7 0
-187 -52 0
-187 -76 0
187 97 -30 -88 94 6 -21 45 7 52 76 0
-188 37 0
-188 81 0
-188 20 0
-188 -24 0
-188 -70 0
-188 97 0
-188 -9 0
-188 65 0
-188 39 0
-188 -74 0
188 -37 -81 -20 24 70 -97 9 -65 -39 74 0
-189 -3 0
-189 -81 0
-189 55 0
-189 -31 0
-189 -72 0
-189 -47 0
-189 64 0
-189 -26 0
-189 6 0
-189 -13 0
189 3 81 -55 31 72 47 -64 26 -6 13 0
-190 1 0
-190 -84 0
-190 74 0
-190 61 0
-190 24 0
-190 19 0
-190 -2 0
-190 68 0
-190 76 0
-190 46 0
190 -1 84 -74 -61 -24 -19 2 -68 -76 -46 0
181 182 183 184 185 186 187 188 189 190 0
-191 2 0
-191 59 0
-191 -85 0
-191 83 0
-191 -87 0
-191 -26 0
-191 43 0
-191 38 0
-191 34 0
-191 -28 0
191 -2 -59 85 -83 87 26 -43 -38 -34 28 0
-192 64 0
-192 66 0
-192 84 0
-192 75 0
-192 -24 0
-192 -81 0
-192 -79 0
-192 33 0
-192 -16 0
-192 39 0
192 -64 -66 -84 -75 24 81 79 -33 16 -39 0
-193 -23 0
-193 77 0
-193 32 0
-193 -65 0
-193 52 0
-193 -99 0
-193 -80 0
-193 90 0
-193 -49 0
-193 16 0
193 23 -77 -32 65 -52 99 80 -90 49 -16 0
-194 -87 0
-194 -36 0
-194 -38 0
-194 51 0
-194 -22 0
-194 31 0
-194 83 0
-194 -92 0
-194 -97 0
-194 93 0
194 87 36 38 -51 22 -31 -83 92 97 -93 0
-195 -55 0
-195 -68 0
-195 83 0
-195 98 0
-195 -42 0
-195 -18 0
-195 52 0
-195 -74 0
-195 -22 0
-195 -15 0
195 55 68 -83 -98 42 18 -52 74 22 15 0
-196 25 0
-196 9 0
-196 -60 0
-196 -6 0
-196 -40 0
-196 86 0
-196 76 0
-196 53 0
-196 -7 0
-196 -36 0
196 -25 -9 60 6 40 -86 -76 -53 7 36 0
-197 44 0
-197 74 0
-197 -85 0
-197 -14 0
-197 65 0
-197 -42 0
-197 40 0
-197 72 0
-197 -78 0
-197 -97 0
197 -44 -74 85 14 -65 42 -40 -72 78 97 0
-198 -99 0
-198 -82 0
-198 58 0
-198 95 0
-198 37 0
-198 64 0
-198 29 0
-198 -3 0
-198 -72 0
-198 20 0
198 99 82 -58 -95 -37 -64 -29 3 72 -20 0
-199 -7 0
-199 48 0
-199 51 0
-199 85 0
-199 72 0
-199 43 0
-199 12 0
-199 83 0
-199 21 0
-199 29 0
199 7 -48 -51 -85 -72 -43 -12 -83 -21 -29 0
-200 14 0
-200 -28 0
-200 25 0
-200 -15 0
-200 35 0
-200 36 0
-200 -97 0
-200 -84 0
-200 -18 0
-200 -70 0
200 -14 28 -25 15 -35 -36 97 84 18 70 0
191 192 193 194 195 196 197 198 199 200 0
